n=10;
hearts=87;
clubs=64;
spades=63;
diamonds=98;
blocked=29;
m=array2d(1..n, 1..n,[
	1,1,5,3,4,4,_,_,4,_,
	_,5,5,_,_,3,3,_,4,3,
	_,5,2,_,_,1,5,5,5,5,
	5,_,5,_,5,_,3,_,5,4,
	5,5,2,_,4,1,5,_,_,5,
	_,_,1,5,5,5,5,3,2,5,
	_,3,2,_,_,_,4,1,_,5,
	_,1,2,2,_,_,5,_,5,_,
	_,5,_,_,_,5,2,5,_,_,
	3,5,_,4,_,5,_,_,2,2
]);
